302589
302589
301823
300561
300561
300561
300561
299150
299150
298011
295097
295097
291788
291788
291788
291788
291788
290728
290269
290269
286355
286355
286355
286355
286355
284689
284689
284689
284689
284689
284689
284689
282847
282847
282847
282847
282847
282842
280454
280454
280454
280454
280454
279855
279855
278288
277738
277738
277738
274742
274742
274742
274742
274742
274742
274742
274742
274742
274742
274742
274308
274308
273769
273769
273769
273002
273002
271564
271564
269991
269604
269604
269604
269604
269604
269604
269044
269044
269044
269044
269044
269044
268995
268995
268995
266208
266208
266208
266054
266054
266054
266054
266054
266054
266054
266054
266054
266054
266054
266054
